sat
(:max-memory                   18.23
 :memory                       18.09
 :nlsat-irrational-assignments 1
 :nlsat-propagations           10
 :nlsat-stages                 4
 :num-allocs                   6528
 :rlimit-count                 3061
 :time                         0.00)
